57
21
0 22 24 28 29 30 36 38 39 43 45 47 48 51 55 56
1 24 26 27 29 30 31 32 33 36 38 39 42 43 47 48 49 53 54 55
2 22 24 28 29 30 33 35 36 37 39 41 43 46 49 50 55
3 22 24 29 30 32 34 36 38 39 40 44 45 46 48 49 51
4 22 24 29 30 38 39 41 43 44 45 46 47 48 53 54 55
5 24 27 29 30 34 36 38 39 41 43 44 45 46 48
6 23 24 27 29 30 35 37 38 43 45 47 48 49 55 56
7 24 27 31 33 34 39 43 44 47 48 51 52 54 55 56
8 22 24 29 31 38 39 47 52 54 55
9 22 25 30 36 38 39 41 43 45 47 53 54 55
10 27 28 29 30 32 33 34 35 37 46
11 25 28 29 31 33 38 41 42 44 46 48 49 52 53 54 56
12 30 31 32 33 36 37 38 41 43 44 45 46 47 53 54 55
13 31 33 36 37 39 44 48 49 53 54
14 22 27 29 30 32 33 41 52 55
15 22 24 27 28 30 32 41 43 45 46 47 52
16 25 32 34 38 39 45 48 50
17 21 28 30 31 34 44 48 49
18 25 33 34 39 42 43
19 30 40
20 25 52
